Maximize
  - 2.8047520375695 edge_0_1_0_0 - 2.12846598773 edge_0_2_0_0
   - 0.58526143914572 edge_0_3_0_0 - 2.0709685277352 edge_0_4_0_0
   - 2.285790551505 edge_0_5_0_0 - 2.036378444724 edge_0_7_0_0
   - 1.9121669214063 edge_0_9_0_0 - 2.6279454921027 edge_0_12_0_0
   - 2.3924121474 edge_0_15_0_0 - 1.6487366687919 edge_0_20_0_0
   - 0.1543793057675084 edge_1_2_0_0 - 0.0928858224540337 edge_1_3_0_0
   + 0.0887538154638004 edge_1_4_0_0 - 0.6060354376760966 edge_1_5_0_0
   + 0.2884140654516017 edge_2_1_0_0 + 0.5280413393039298 edge_2_3_0_0
   + 0.4772548855628067 edge_2_4_0_0 + 0.2213917418820128 edge_2_5_0_0
   - 0.4050530346776008 edge_2_7_0_0 - 0.4893403041311619 edge_2_9_0_0
   + 0.1256684544400794 edge_2_12_0_0 - 0.5250526144244289 edge_2_15_0_0
   - 0.1378031010742452 edge_2_19_0_0 + 0.0463176421779619 edge_2_20_0_0
   - 1.849811444145195 edge_2_22_0_0 - 1.744957240607323 edge_2_25_0_0
   + 0.8477405130854646 edge_2_26_0_0 + 1.477296791635821 edge_3_1_0_0
   + 1.912420524715392 edge_3_2_0_0 + 1.800197252510777 edge_3_4_0_0
   + 0.7255239974409554 edge_3_5_0_0 + 0.0602106224043728 edge_3_7_0_0
   - 0.4486673442128294 edge_3_8_0_0 + 0.2685474983431564 edge_3_9_0_0
   + 1.182850315998814 edge_3_12_0_0 + 0.3900576223455167 edge_3_13_0_0
   + 0.5213736121762887 edge_3_15_0_0 - 0.2067494789243259 edge_3_19_0_0
   + 0.8710124656126043 edge_3_20_0_0 + 0.1588123456648479 edge_3_22_0_0
   - 1.015310978199245 edge_3_23_0_0 + 0.495194159695041 edge_3_25_0_0
   + 3.199672403426869 edge_3_26_0_0 - 0.2382997667074498 edge_4_1_0_0
   + 0.0340809154307981 edge_4_2_0_0 - 0.1954187044838394 edge_4_3_0_0
   - 0.9304101177671948 edge_4_12_0_0 - 0.6332411019029311 edge_5_1_0_0
   - 0.3602511247944151 edge_5_2_0_0 - 0.4522773665810377 edge_5_3_0_0
   - 0.0775726051092699 edge_5_4_0_0 + 0.2744749979322 edge_5_7_0_0
   + 0.0747233151968588 edge_5_9_0_0 + 0.0651687457293709 edge_5_12_0_0
   - 0.4398948865682075 edge_5_15_0_0 - 0.0375739792962625 edge_5_19_0_0
   - 0.137233735825708 edge_5_20_0_0 - 0.672653362413961 edge_5_22_0_0
   - 0.794587666255146 edge_5_25_0_0 - 0.0900380807628966 edge_7_1_0_0
   + 0.092741614990497 edge_7_2_0_0 + 0.1936575094800305 edge_7_3_0_0
   + 0.492303690393216 edge_7_4_0_0 + 1.223512547209393 edge_7_5_0_0
   + 1.091435300146338 edge_7_9_0_0 + 0.1877235653069703 edge_7_12_0_0
   + 0.5697002632045468 edge_7_15_0_0 + 0.9762116825338192 edge_7_20_0_0
   + 0.0236591517222573 edge_7_22_0_0 + 0.8867814206062665 edge_7_26_0_0
   + 1.245652953740804 edge_8_9_0_0 + 0.7057620387885688 edge_8_13_0_0
   + 0.2789147980225847 edge_8_15_0_0 + 0.6689537721995525 edge_8_20_0_0
   + 0.4006723514935221 edge_8_22_0_0 - 0.5264847908853558 edge_8_23_0_0
   - 0.3581775723748601 edge_9_1_0_0 + 0.8697250813200046 edge_9_2_0_0
   + 0.1304186926009268 edge_9_3_0_0 + 0.2789681678071532 edge_9_4_0_0
   + 0.9664210509912029 edge_9_5_0_0 + 1.065605508820369 edge_9_7_0_0
   + 2.0563464295418 edge_9_8_0_0 + 0.592914302899714 edge_9_12_0_0
   + 0.8351399643399086 edge_9_13_0_0 + 1.825860012211048 edge_9_15_0_0
   + 0.0335974139726534 edge_9_19_0_0 + 2.227157129246124 edge_9_20_0_0
   + 0.8317109969175476 edge_9_22_0_0 + 0.3654800723913037 edge_9_23_0_0
   + 0.5846772570199721 edge_9_25_0_0 + 2.377643008191282 edge_9_26_0_0
   - 1.125817159394624 edge_12_1_0_0 - 0.8013832542222508 edge_12_2_0_0
   - 0.1681029757427372 edge_12_3_0_0 + 0.1963214468734871 edge_12_4_0_0
   + 1.479648610086591 edge_12_5_0_0 + 0.1334137642732398 edge_12_8_0_0
   + 0.6411378265018836 edge_12_9_0_0 + 0.3202314301896176 edge_12_13_0_0
   + 2.020210793844504 edge_12_15_0_0 + 0.2534735109571514 edge_12_19_0_0
   + 1.036475197832337 edge_12_20_0_0 + 0.1367090001435027 edge_12_22_0_0
   - 0.0090950102088675 edge_12_25_0_0 + 2.259045518326761 edge_12_26_0_0
   - 0.0204716641291607 edge_13_5_0_0 + 0.3169919764370092 edge_13_8_0_0
   + 0.0843758607035142 edge_13_9_0_0 + 0.1926592085011881 edge_13_12_0_0
   + 1.500524120826094 edge_13_15_0_0 + 0.0449273537842076 edge_13_20_0_0
   - 0.3346592147521574 edge_13_22_0_0 - 0.7314406908907928 edge_13_23_0_0
   - 0.571346496292518 edge_15_1_0_0 - 0.5553737514028181 edge_15_2_0_0
   + 0.014432673034673 edge_15_3_0_0 - 0.4780303243787951 edge_15_4_0_0
   + 0.474384767208384 edge_15_5_0_0 + 1.016257521473482 edge_15_7_0_0
   - 0.2157634897383685 edge_15_8_0_0 + 0.811751884405602 edge_15_9_0_0
   + 3.090688407831955 edge_15_12_0_0 + 2.016829602665186 edge_15_13_0_0
   + 0.3410860116744283 edge_15_19_0_0 + 1.75234117834216 edge_15_20_0_0
   + 0.6599232399816821 edge_15_22_0_0 + 0.6567200564706699 edge_15_25_0_0
   + 1.789348530603271 edge_15_26_0_0 - 0.0501570155150651 edge_19_12_0_0
   - 0.1111362672490496 edge_19_15_0_0 - 0.0114799168791468 edge_19_20_0_0
   - 0.3320558167299434 edge_19_22_0_0 - 0.8313785043743056 edge_20_1_0_0
   - 0.7872164782620287 edge_20_2_0_0 - 0.5689263945115631 edge_20_3_0_0
   - 0.5824278519659881 edge_20_4_0_0 - 0.0837268671046788 edge_20_5_0_0
   + 0.2570799322435808 edge_20_7_0_0 - 0.0186851753965303 edge_20_8_0_0
   + 0.2524693480285038 edge_20_9_0_0 + 0.0973441357134466 edge_20_12_0_0
   - 0.185285862708521 edge_20_13_0_0 - 0.2186576899951354 edge_20_15_0_0
   + 1.051417954685253 edge_20_19_0_0 + 3.506363170121021 edge_20_22_0_0
   + 0.2622064852001285 edge_20_23_0_0 + 2.536644753301693 edge_20_25_0_0
   + 2.139135285053822 edge_20_26_0_0 + 0.9455794706657021 edge_22_8_0_0
   + 0.374892817992387 edge_22_9_0_0 - 0.1268774528991025 edge_22_12_0_0
   - 0.5420893746832074 edge_22_13_0_0 - 0.9709742840226484 edge_22_15_0_0
   - 0.1447571838526009 edge_22_19_0_0 + 0.792863205366067 edge_22_23_0_0
   + 1.989971244808224 edge_22_25_0_0 + 1.974135638878179 edge_22_26_0_0
   + 0.5829192800862526 edge_23_25_0_0 - 1.009505899531205 edge_25_1_0_0
   - 0.5832280547668145 edge_25_3_0_0 - 0.1170568334392435 edge_25_5_0_0
   - 0.2087536520543778 edge_25_7_0_0 - 0.4807463285844065 edge_25_8_0_0
   - 0.3807204868669993 edge_25_9_0_0 - 0.4985866738111421 edge_25_12_0_0
   - 0.3916979200354978 edge_25_13_0_0 - 0.5501035494513902 edge_25_15_0_0
   - 0.0112366682187217 edge_25_19_0_0 + 0.6115190175086446 edge_25_22_0_0
   + 2.960716833645572 edge_25_23_0_0 + 2.406728134514105 edge_25_26_0_0
   - 0.9859573622114068 edge_26_23_0_0 - 1.236773624908882 edge_26_25_0_0
   + 0 pos_1_0 + 0 pos_2_0 + 0 pos_3_0 + 0 pos_4_0 + 0 pos_5_0 + 0 pos_7_0
   + 0 pos_8_0 + 0 pos_9_0 + 0 pos_12_0 + 0 pos_13_0 + 0 pos_15_0
   + 0 pos_19_0 + 0 pos_20_0 + 0 pos_22_0 + 0 pos_23_0 + 0 pos_25_0
   + 0 pos_26_0
Subject To
 one_parent_1: edge_0_1_0_0 + edge_2_1_0_0 + edge_3_1_0_0 + edge_4_1_0_0
   + edge_5_1_0_0 + edge_7_1_0_0 + edge_9_1_0_0 + edge_12_1_0_0
   + edge_15_1_0_0 + edge_20_1_0_0 + edge_25_1_0_0 = 1
 consume_one_flow_unit_1: flow_0_1_0_0 - flow_1_2_0_0 - flow_1_3_0_0
   - flow_1_4_0_0 - flow_1_5_0_0 + flow_2_1_0_0 + flow_3_1_0_0
   + flow_4_1_0_0 + flow_5_1_0_0 + flow_7_1_0_0 + flow_9_1_0_0
   + flow_12_1_0_0 + flow_15_1_0_0 + flow_20_1_0_0 + flow_25_1_0_0 = 1
 one_parent_2: edge_0_2_0_0 + edge_1_2_0_0 + edge_3_2_0_0 + edge_4_2_0_0
   + edge_5_2_0_0 + edge_7_2_0_0 + edge_9_2_0_0 + edge_12_2_0_0
   + edge_15_2_0_0 + edge_20_2_0_0 = 1
 consume_one_flow_unit_2: flow_0_2_0_0 + flow_1_2_0_0 - flow_2_1_0_0
   - flow_2_3_0_0 - flow_2_4_0_0 - flow_2_5_0_0 - flow_2_7_0_0
   - flow_2_9_0_0 - flow_2_12_0_0 - flow_2_15_0_0 - flow_2_19_0_0
   - flow_2_20_0_0 - flow_2_22_0_0 - flow_2_25_0_0 - flow_2_26_0_0
   + flow_3_2_0_0 + flow_4_2_0_0 + flow_5_2_0_0 + flow_7_2_0_0
   + flow_9_2_0_0 + flow_12_2_0_0 + flow_15_2_0_0 + flow_20_2_0_0 = 1
 one_parent_3: edge_0_3_0_0 + edge_1_3_0_0 + edge_2_3_0_0 + edge_4_3_0_0
   + edge_5_3_0_0 + edge_7_3_0_0 + edge_9_3_0_0 + edge_12_3_0_0
   + edge_15_3_0_0 + edge_20_3_0_0 + edge_25_3_0_0 = 1
 consume_one_flow_unit_3: flow_0_3_0_0 + flow_1_3_0_0 + flow_2_3_0_0
   - flow_3_1_0_0 - flow_3_2_0_0 - flow_3_4_0_0 - flow_3_5_0_0
   - flow_3_7_0_0 - flow_3_8_0_0 - flow_3_9_0_0 - flow_3_12_0_0
   - flow_3_13_0_0 - flow_3_15_0_0 - flow_3_19_0_0 - flow_3_20_0_0
   - flow_3_22_0_0 - flow_3_23_0_0 - flow_3_25_0_0 - flow_3_26_0_0
   + flow_4_3_0_0 + flow_5_3_0_0 + flow_7_3_0_0 + flow_9_3_0_0
   + flow_12_3_0_0 + flow_15_3_0_0 + flow_20_3_0_0 + flow_25_3_0_0 = 1
 one_parent_4: edge_0_4_0_0 + edge_1_4_0_0 + edge_2_4_0_0 + edge_3_4_0_0
   + edge_5_4_0_0 + edge_7_4_0_0 + edge_9_4_0_0 + edge_12_4_0_0
   + edge_15_4_0_0 + edge_20_4_0_0 = 1
 consume_one_flow_unit_4: flow_0_4_0_0 + flow_1_4_0_0 + flow_2_4_0_0
   + flow_3_4_0_0 - flow_4_1_0_0 - flow_4_2_0_0 - flow_4_3_0_0
   - flow_4_12_0_0 + flow_5_4_0_0 + flow_7_4_0_0 + flow_9_4_0_0
   + flow_12_4_0_0 + flow_15_4_0_0 + flow_20_4_0_0 = 1
 one_parent_5: edge_0_5_0_0 + edge_1_5_0_0 + edge_2_5_0_0 + edge_3_5_0_0
   + edge_7_5_0_0 + edge_9_5_0_0 + edge_12_5_0_0 + edge_13_5_0_0
   + edge_15_5_0_0 + edge_20_5_0_0 + edge_25_5_0_0 = 1
 consume_one_flow_unit_5: flow_0_5_0_0 + flow_1_5_0_0 + flow_2_5_0_0
   + flow_3_5_0_0 - flow_5_1_0_0 - flow_5_2_0_0 - flow_5_3_0_0
   - flow_5_4_0_0 - flow_5_7_0_0 - flow_5_9_0_0 - flow_5_12_0_0
   - flow_5_15_0_0 - flow_5_19_0_0 - flow_5_20_0_0 - flow_5_22_0_0
   - flow_5_25_0_0 + flow_7_5_0_0 + flow_9_5_0_0 + flow_12_5_0_0
   + flow_13_5_0_0 + flow_15_5_0_0 + flow_20_5_0_0 + flow_25_5_0_0 = 1
 one_parent_6: = 1
 consume_one_flow_unit_6: = 1
 one_parent_7: edge_0_7_0_0 + edge_2_7_0_0 + edge_3_7_0_0 + edge_5_7_0_0
   + edge_9_7_0_0 + edge_15_7_0_0 + edge_20_7_0_0 + edge_25_7_0_0 = 1
 consume_one_flow_unit_7: flow_0_7_0_0 + flow_2_7_0_0 + flow_3_7_0_0
   + flow_5_7_0_0 - flow_7_1_0_0 - flow_7_2_0_0 - flow_7_3_0_0
   - flow_7_4_0_0 - flow_7_5_0_0 - flow_7_9_0_0 - flow_7_12_0_0
   - flow_7_15_0_0 - flow_7_20_0_0 - flow_7_22_0_0 - flow_7_26_0_0
   + flow_9_7_0_0 + flow_15_7_0_0 + flow_20_7_0_0 + flow_25_7_0_0 = 1
 one_parent_8: edge_3_8_0_0 + edge_9_8_0_0 + edge_12_8_0_0 + edge_13_8_0_0
   + edge_15_8_0_0 + edge_20_8_0_0 + edge_22_8_0_0 + edge_25_8_0_0 = 1
 consume_one_flow_unit_8: flow_3_8_0_0 - flow_8_9_0_0 - flow_8_13_0_0
   - flow_8_15_0_0 - flow_8_20_0_0 - flow_8_22_0_0 - flow_8_23_0_0
   + flow_9_8_0_0 + flow_12_8_0_0 + flow_13_8_0_0 + flow_15_8_0_0
   + flow_20_8_0_0 + flow_22_8_0_0 + flow_25_8_0_0 = 1
 one_parent_9: edge_0_9_0_0 + edge_2_9_0_0 + edge_3_9_0_0 + edge_5_9_0_0
   + edge_7_9_0_0 + edge_8_9_0_0 + edge_12_9_0_0 + edge_13_9_0_0
   + edge_15_9_0_0 + edge_20_9_0_0 + edge_22_9_0_0 + edge_25_9_0_0 = 1
 consume_one_flow_unit_9: flow_0_9_0_0 + flow_2_9_0_0 + flow_3_9_0_0
   + flow_5_9_0_0 + flow_7_9_0_0 + flow_8_9_0_0 - flow_9_1_0_0
   - flow_9_2_0_0 - flow_9_3_0_0 - flow_9_4_0_0 - flow_9_5_0_0
   - flow_9_7_0_0 - flow_9_8_0_0 - flow_9_12_0_0 - flow_9_13_0_0
   - flow_9_15_0_0 - flow_9_19_0_0 - flow_9_20_0_0 - flow_9_22_0_0
   - flow_9_23_0_0 - flow_9_25_0_0 - flow_9_26_0_0 + flow_12_9_0_0
   + flow_13_9_0_0 + flow_15_9_0_0 + flow_20_9_0_0 + flow_22_9_0_0
   + flow_25_9_0_0 = 1
 one_parent_10: = 1
 consume_one_flow_unit_10: = 1
 one_parent_11: = 1
 consume_one_flow_unit_11: = 1
 one_parent_12: edge_0_12_0_0 + edge_2_12_0_0 + edge_3_12_0_0
   + edge_4_12_0_0 + edge_5_12_0_0 + edge_7_12_0_0 + edge_9_12_0_0
   + edge_13_12_0_0 + edge_15_12_0_0 + edge_19_12_0_0 + edge_20_12_0_0
   + edge_22_12_0_0 + edge_25_12_0_0 = 1
 consume_one_flow_unit_12: flow_0_12_0_0 + flow_2_12_0_0 + flow_3_12_0_0
   + flow_4_12_0_0 + flow_5_12_0_0 + flow_7_12_0_0 + flow_9_12_0_0
   - flow_12_1_0_0 - flow_12_2_0_0 - flow_12_3_0_0 - flow_12_4_0_0
   - flow_12_5_0_0 - flow_12_8_0_0 - flow_12_9_0_0 - flow_12_13_0_0
   - flow_12_15_0_0 - flow_12_19_0_0 - flow_12_20_0_0 - flow_12_22_0_0
   - flow_12_25_0_0 - flow_12_26_0_0 + flow_13_12_0_0 + flow_15_12_0_0
   + flow_19_12_0_0 + flow_20_12_0_0 + flow_22_12_0_0 + flow_25_12_0_0 = 1
 one_parent_13: edge_3_13_0_0 + edge_8_13_0_0 + edge_9_13_0_0
   + edge_12_13_0_0 + edge_15_13_0_0 + edge_20_13_0_0 + edge_22_13_0_0
   + edge_25_13_0_0 = 1
 consume_one_flow_unit_13: flow_3_13_0_0 + flow_8_13_0_0 + flow_9_13_0_0
   + flow_12_13_0_0 - flow_13_5_0_0 - flow_13_8_0_0 - flow_13_9_0_0
   - flow_13_12_0_0 - flow_13_15_0_0 - flow_13_20_0_0 - flow_13_22_0_0
   - flow_13_23_0_0 + flow_15_13_0_0 + flow_20_13_0_0 + flow_22_13_0_0
   + flow_25_13_0_0 = 1
 one_parent_14: = 1
 consume_one_flow_unit_14: = 1
 one_parent_15: edge_0_15_0_0 + edge_2_15_0_0 + edge_3_15_0_0
   + edge_5_15_0_0 + edge_7_15_0_0 + edge_8_15_0_0 + edge_9_15_0_0
   + edge_12_15_0_0 + edge_13_15_0_0 + edge_19_15_0_0 + edge_20_15_0_0
   + edge_22_15_0_0 + edge_25_15_0_0 = 1
 consume_one_flow_unit_15: flow_0_15_0_0 + flow_2_15_0_0 + flow_3_15_0_0
   + flow_5_15_0_0 + flow_7_15_0_0 + flow_8_15_0_0 + flow_9_15_0_0
   + flow_12_15_0_0 + flow_13_15_0_0 - flow_15_1_0_0 - flow_15_2_0_0
   - flow_15_3_0_0 - flow_15_4_0_0 - flow_15_5_0_0 - flow_15_7_0_0
   - flow_15_8_0_0 - flow_15_9_0_0 - flow_15_12_0_0 - flow_15_13_0_0
   - flow_15_19_0_0 - flow_15_20_0_0 - flow_15_22_0_0 - flow_15_25_0_0
   - flow_15_26_0_0 + flow_19_15_0_0 + flow_20_15_0_0 + flow_22_15_0_0
   + flow_25_15_0_0 = 1
 one_parent_16: = 1
 consume_one_flow_unit_16: = 1
 one_parent_17: = 1
 consume_one_flow_unit_17: = 1
 one_parent_18: = 1
 consume_one_flow_unit_18: = 1
 one_parent_19: edge_2_19_0_0 + edge_3_19_0_0 + edge_5_19_0_0
   + edge_9_19_0_0 + edge_12_19_0_0 + edge_15_19_0_0 + edge_20_19_0_0
   + edge_22_19_0_0 + edge_25_19_0_0 = 1
 consume_one_flow_unit_19: flow_2_19_0_0 + flow_3_19_0_0 + flow_5_19_0_0
   + flow_9_19_0_0 + flow_12_19_0_0 + flow_15_19_0_0 - flow_19_12_0_0
   - flow_19_15_0_0 - flow_19_20_0_0 - flow_19_22_0_0 + flow_20_19_0_0
   + flow_22_19_0_0 + flow_25_19_0_0 = 1
 one_parent_20: edge_0_20_0_0 + edge_2_20_0_0 + edge_3_20_0_0
   + edge_5_20_0_0 + edge_7_20_0_0 + edge_8_20_0_0 + edge_9_20_0_0
   + edge_12_20_0_0 + edge_13_20_0_0 + edge_15_20_0_0 + edge_19_20_0_0 = 1
 consume_one_flow_unit_20: flow_0_20_0_0 + flow_2_20_0_0 + flow_3_20_0_0
   + flow_5_20_0_0 + flow_7_20_0_0 + flow_8_20_0_0 + flow_9_20_0_0
   + flow_12_20_0_0 + flow_13_20_0_0 + flow_15_20_0_0 + flow_19_20_0_0
   - flow_20_1_0_0 - flow_20_2_0_0 - flow_20_3_0_0 - flow_20_4_0_0
   - flow_20_5_0_0 - flow_20_7_0_0 - flow_20_8_0_0 - flow_20_9_0_0
   - flow_20_12_0_0 - flow_20_13_0_0 - flow_20_15_0_0 - flow_20_19_0_0
   - flow_20_22_0_0 - flow_20_23_0_0 - flow_20_25_0_0 - flow_20_26_0_0 = 1
 one_parent_21: = 1
 consume_one_flow_unit_21: = 1
 one_parent_22: edge_2_22_0_0 + edge_3_22_0_0 + edge_5_22_0_0
   + edge_7_22_0_0 + edge_8_22_0_0 + edge_9_22_0_0 + edge_12_22_0_0
   + edge_13_22_0_0 + edge_15_22_0_0 + edge_19_22_0_0 + edge_20_22_0_0
   + edge_25_22_0_0 = 1
 consume_one_flow_unit_22: flow_2_22_0_0 + flow_3_22_0_0 + flow_5_22_0_0
   + flow_7_22_0_0 + flow_8_22_0_0 + flow_9_22_0_0 + flow_12_22_0_0
   + flow_13_22_0_0 + flow_15_22_0_0 + flow_19_22_0_0 + flow_20_22_0_0
   - flow_22_8_0_0 - flow_22_9_0_0 - flow_22_12_0_0 - flow_22_13_0_0
   - flow_22_15_0_0 - flow_22_19_0_0 - flow_22_23_0_0 - flow_22_25_0_0
   - flow_22_26_0_0 + flow_25_22_0_0 = 1
 one_parent_23: edge_3_23_0_0 + edge_8_23_0_0 + edge_9_23_0_0
   + edge_13_23_0_0 + edge_20_23_0_0 + edge_22_23_0_0 + edge_25_23_0_0
   + edge_26_23_0_0 = 1
 consume_one_flow_unit_23: flow_3_23_0_0 + flow_8_23_0_0 + flow_9_23_0_0
   + flow_13_23_0_0 + flow_20_23_0_0 + flow_22_23_0_0 - flow_23_25_0_0
   + flow_25_23_0_0 + flow_26_23_0_0 = 1
 one_parent_24: = 1
 consume_one_flow_unit_24: = 1
 one_parent_25: edge_2_25_0_0 + edge_3_25_0_0 + edge_5_25_0_0
   + edge_9_25_0_0 + edge_12_25_0_0 + edge_15_25_0_0 + edge_20_25_0_0
   + edge_22_25_0_0 + edge_23_25_0_0 + edge_26_25_0_0 = 1
 consume_one_flow_unit_25: flow_2_25_0_0 + flow_3_25_0_0 + flow_5_25_0_0
   + flow_9_25_0_0 + flow_12_25_0_0 + flow_15_25_0_0 + flow_20_25_0_0
   + flow_22_25_0_0 + flow_23_25_0_0 - flow_25_1_0_0 - flow_25_3_0_0
   - flow_25_5_0_0 - flow_25_7_0_0 - flow_25_8_0_0 - flow_25_9_0_0
   - flow_25_12_0_0 - flow_25_13_0_0 - flow_25_15_0_0 - flow_25_19_0_0
   - flow_25_22_0_0 - flow_25_23_0_0 - flow_25_26_0_0 + flow_26_25_0_0 = 1
 one_parent_26: edge_2_26_0_0 + edge_3_26_0_0 + edge_7_26_0_0
   + edge_9_26_0_0 + edge_12_26_0_0 + edge_15_26_0_0 + edge_20_26_0_0
   + edge_22_26_0_0 + edge_25_26_0_0 = 1
 consume_one_flow_unit_26: flow_2_26_0_0 + flow_3_26_0_0 + flow_7_26_0_0
   + flow_9_26_0_0 + flow_12_26_0_0 + flow_15_26_0_0 + flow_20_26_0_0
   + flow_22_26_0_0 + flow_25_26_0_0 - flow_26_23_0_0 - flow_26_25_0_0 = 1
 root_flow: flow_0_1_0_0 + flow_0_2_0_0 + flow_0_3_0_0 + flow_0_4_0_0
   + flow_0_5_0_0 + flow_0_7_0_0 + flow_0_9_0_0 + flow_0_12_0_0
   + flow_0_15_0_0 + flow_0_20_0_0 = 26
 inactive_no_flow_0_1_0_0: flow_0_1_0_0 - 1000 edge_0_1_0_0 <= 0
 inactive_no_flow_0_2_0_0: flow_0_2_0_0 - 1000 edge_0_2_0_0 <= 0
 inactive_no_flow_0_3_0_0: flow_0_3_0_0 - 1000 edge_0_3_0_0 <= 0
 inactive_no_flow_0_4_0_0: flow_0_4_0_0 - 1000 edge_0_4_0_0 <= 0
 inactive_no_flow_0_5_0_0: flow_0_5_0_0 - 1000 edge_0_5_0_0 <= 0
 inactive_no_flow_0_7_0_0: flow_0_7_0_0 - 1000 edge_0_7_0_0 <= 0
 inactive_no_flow_0_9_0_0: flow_0_9_0_0 - 1000 edge_0_9_0_0 <= 0
 inactive_no_flow_0_12_0_0: flow_0_12_0_0 - 1000 edge_0_12_0_0 <= 0
 inactive_no_flow_0_15_0_0: flow_0_15_0_0 - 1000 edge_0_15_0_0 <= 0
 inactive_no_flow_0_20_0_0: flow_0_20_0_0 - 1000 edge_0_20_0_0 <= 0
 inactive_no_flow_1_2_0_0: flow_1_2_0_0 - 1000 edge_1_2_0_0 <= 0
 inactive_no_flow_1_3_0_0: flow_1_3_0_0 - 1000 edge_1_3_0_0 <= 0
 inactive_no_flow_1_4_0_0: flow_1_4_0_0 - 1000 edge_1_4_0_0 <= 0
 inactive_no_flow_1_5_0_0: flow_1_5_0_0 - 1000 edge_1_5_0_0 <= 0
 inactive_no_flow_2_1_0_0: flow_2_1_0_0 - 1000 edge_2_1_0_0 <= 0
 inactive_no_flow_2_3_0_0: flow_2_3_0_0 - 1000 edge_2_3_0_0 <= 0
 inactive_no_flow_2_4_0_0: flow_2_4_0_0 - 1000 edge_2_4_0_0 <= 0
 inactive_no_flow_2_5_0_0: flow_2_5_0_0 - 1000 edge_2_5_0_0 <= 0
 inactive_no_flow_2_7_0_0: flow_2_7_0_0 - 1000 edge_2_7_0_0 <= 0
 inactive_no_flow_2_9_0_0: flow_2_9_0_0 - 1000 edge_2_9_0_0 <= 0
 inactive_no_flow_2_12_0_0: flow_2_12_0_0 - 1000 edge_2_12_0_0 <= 0
 inactive_no_flow_2_15_0_0: flow_2_15_0_0 - 1000 edge_2_15_0_0 <= 0
 inactive_no_flow_2_19_0_0: flow_2_19_0_0 - 1000 edge_2_19_0_0 <= 0
 inactive_no_flow_2_20_0_0: flow_2_20_0_0 - 1000 edge_2_20_0_0 <= 0
 inactive_no_flow_2_22_0_0: flow_2_22_0_0 - 1000 edge_2_22_0_0 <= 0
 inactive_no_flow_2_25_0_0: flow_2_25_0_0 - 1000 edge_2_25_0_0 <= 0
 inactive_no_flow_2_26_0_0: flow_2_26_0_0 - 1000 edge_2_26_0_0 <= 0
 inactive_no_flow_3_1_0_0: flow_3_1_0_0 - 1000 edge_3_1_0_0 <= 0
 inactive_no_flow_3_2_0_0: flow_3_2_0_0 - 1000 edge_3_2_0_0 <= 0
 inactive_no_flow_3_4_0_0: flow_3_4_0_0 - 1000 edge_3_4_0_0 <= 0
 inactive_no_flow_3_5_0_0: flow_3_5_0_0 - 1000 edge_3_5_0_0 <= 0
 inactive_no_flow_3_7_0_0: flow_3_7_0_0 - 1000 edge_3_7_0_0 <= 0
 inactive_no_flow_3_8_0_0: flow_3_8_0_0 - 1000 edge_3_8_0_0 <= 0
 inactive_no_flow_3_9_0_0: flow_3_9_0_0 - 1000 edge_3_9_0_0 <= 0
 inactive_no_flow_3_12_0_0: flow_3_12_0_0 - 1000 edge_3_12_0_0 <= 0
 inactive_no_flow_3_13_0_0: flow_3_13_0_0 - 1000 edge_3_13_0_0 <= 0
 inactive_no_flow_3_15_0_0: flow_3_15_0_0 - 1000 edge_3_15_0_0 <= 0
 inactive_no_flow_3_19_0_0: flow_3_19_0_0 - 1000 edge_3_19_0_0 <= 0
 inactive_no_flow_3_20_0_0: flow_3_20_0_0 - 1000 edge_3_20_0_0 <= 0
 inactive_no_flow_3_22_0_0: flow_3_22_0_0 - 1000 edge_3_22_0_0 <= 0
 inactive_no_flow_3_23_0_0: flow_3_23_0_0 - 1000 edge_3_23_0_0 <= 0
 inactive_no_flow_3_25_0_0: flow_3_25_0_0 - 1000 edge_3_25_0_0 <= 0
 inactive_no_flow_3_26_0_0: flow_3_26_0_0 - 1000 edge_3_26_0_0 <= 0
 inactive_no_flow_4_1_0_0: flow_4_1_0_0 - 1000 edge_4_1_0_0 <= 0
 inactive_no_flow_4_2_0_0: flow_4_2_0_0 - 1000 edge_4_2_0_0 <= 0
 inactive_no_flow_4_3_0_0: flow_4_3_0_0 - 1000 edge_4_3_0_0 <= 0
 inactive_no_flow_4_12_0_0: flow_4_12_0_0 - 1000 edge_4_12_0_0 <= 0
 inactive_no_flow_5_1_0_0: flow_5_1_0_0 - 1000 edge_5_1_0_0 <= 0
 inactive_no_flow_5_2_0_0: flow_5_2_0_0 - 1000 edge_5_2_0_0 <= 0
 inactive_no_flow_5_3_0_0: flow_5_3_0_0 - 1000 edge_5_3_0_0 <= 0
 inactive_no_flow_5_4_0_0: flow_5_4_0_0 - 1000 edge_5_4_0_0 <= 0
 inactive_no_flow_5_7_0_0: flow_5_7_0_0 - 1000 edge_5_7_0_0 <= 0
 inactive_no_flow_5_9_0_0: flow_5_9_0_0 - 1000 edge_5_9_0_0 <= 0
 inactive_no_flow_5_12_0_0: flow_5_12_0_0 - 1000 edge_5_12_0_0 <= 0
 inactive_no_flow_5_15_0_0: flow_5_15_0_0 - 1000 edge_5_15_0_0 <= 0
 inactive_no_flow_5_19_0_0: flow_5_19_0_0 - 1000 edge_5_19_0_0 <= 0
 inactive_no_flow_5_20_0_0: flow_5_20_0_0 - 1000 edge_5_20_0_0 <= 0
 inactive_no_flow_5_22_0_0: flow_5_22_0_0 - 1000 edge_5_22_0_0 <= 0
 inactive_no_flow_5_25_0_0: flow_5_25_0_0 - 1000 edge_5_25_0_0 <= 0
 inactive_no_flow_7_1_0_0: flow_7_1_0_0 - 1000 edge_7_1_0_0 <= 0
 inactive_no_flow_7_2_0_0: flow_7_2_0_0 - 1000 edge_7_2_0_0 <= 0
 inactive_no_flow_7_3_0_0: flow_7_3_0_0 - 1000 edge_7_3_0_0 <= 0
 inactive_no_flow_7_4_0_0: flow_7_4_0_0 - 1000 edge_7_4_0_0 <= 0
 inactive_no_flow_7_5_0_0: flow_7_5_0_0 - 1000 edge_7_5_0_0 <= 0
 inactive_no_flow_7_9_0_0: flow_7_9_0_0 - 1000 edge_7_9_0_0 <= 0
 inactive_no_flow_7_12_0_0: flow_7_12_0_0 - 1000 edge_7_12_0_0 <= 0
 inactive_no_flow_7_15_0_0: flow_7_15_0_0 - 1000 edge_7_15_0_0 <= 0
 inactive_no_flow_7_20_0_0: flow_7_20_0_0 - 1000 edge_7_20_0_0 <= 0
 inactive_no_flow_7_22_0_0: flow_7_22_0_0 - 1000 edge_7_22_0_0 <= 0
 inactive_no_flow_7_26_0_0: flow_7_26_0_0 - 1000 edge_7_26_0_0 <= 0
 inactive_no_flow_8_9_0_0: flow_8_9_0_0 - 1000 edge_8_9_0_0 <= 0
 inactive_no_flow_8_13_0_0: flow_8_13_0_0 - 1000 edge_8_13_0_0 <= 0
 inactive_no_flow_8_15_0_0: flow_8_15_0_0 - 1000 edge_8_15_0_0 <= 0
 inactive_no_flow_8_20_0_0: flow_8_20_0_0 - 1000 edge_8_20_0_0 <= 0
 inactive_no_flow_8_22_0_0: flow_8_22_0_0 - 1000 edge_8_22_0_0 <= 0
 inactive_no_flow_8_23_0_0: flow_8_23_0_0 - 1000 edge_8_23_0_0 <= 0
 inactive_no_flow_9_1_0_0: flow_9_1_0_0 - 1000 edge_9_1_0_0 <= 0
 inactive_no_flow_9_2_0_0: flow_9_2_0_0 - 1000 edge_9_2_0_0 <= 0
 inactive_no_flow_9_3_0_0: flow_9_3_0_0 - 1000 edge_9_3_0_0 <= 0
 inactive_no_flow_9_4_0_0: flow_9_4_0_0 - 1000 edge_9_4_0_0 <= 0
 inactive_no_flow_9_5_0_0: flow_9_5_0_0 - 1000 edge_9_5_0_0 <= 0
 inactive_no_flow_9_7_0_0: flow_9_7_0_0 - 1000 edge_9_7_0_0 <= 0
 inactive_no_flow_9_8_0_0: flow_9_8_0_0 - 1000 edge_9_8_0_0 <= 0
 inactive_no_flow_9_12_0_0: flow_9_12_0_0 - 1000 edge_9_12_0_0 <= 0
 inactive_no_flow_9_13_0_0: flow_9_13_0_0 - 1000 edge_9_13_0_0 <= 0
 inactive_no_flow_9_15_0_0: flow_9_15_0_0 - 1000 edge_9_15_0_0 <= 0
 inactive_no_flow_9_19_0_0: flow_9_19_0_0 - 1000 edge_9_19_0_0 <= 0
 inactive_no_flow_9_20_0_0: flow_9_20_0_0 - 1000 edge_9_20_0_0 <= 0
 inactive_no_flow_9_22_0_0: flow_9_22_0_0 - 1000 edge_9_22_0_0 <= 0
 inactive_no_flow_9_23_0_0: flow_9_23_0_0 - 1000 edge_9_23_0_0 <= 0
 inactive_no_flow_9_25_0_0: flow_9_25_0_0 - 1000 edge_9_25_0_0 <= 0
 inactive_no_flow_9_26_0_0: flow_9_26_0_0 - 1000 edge_9_26_0_0 <= 0
 inactive_no_flow_12_1_0_0: flow_12_1_0_0 - 1000 edge_12_1_0_0 <= 0
 inactive_no_flow_12_2_0_0: flow_12_2_0_0 - 1000 edge_12_2_0_0 <= 0
 inactive_no_flow_12_3_0_0: flow_12_3_0_0 - 1000 edge_12_3_0_0 <= 0
 inactive_no_flow_12_4_0_0: flow_12_4_0_0 - 1000 edge_12_4_0_0 <= 0
 inactive_no_flow_12_5_0_0: flow_12_5_0_0 - 1000 edge_12_5_0_0 <= 0
 inactive_no_flow_12_8_0_0: flow_12_8_0_0 - 1000 edge_12_8_0_0 <= 0
 inactive_no_flow_12_9_0_0: flow_12_9_0_0 - 1000 edge_12_9_0_0 <= 0
 inactive_no_flow_12_13_0_0: flow_12_13_0_0 - 1000 edge_12_13_0_0 <= 0
 inactive_no_flow_12_15_0_0: flow_12_15_0_0 - 1000 edge_12_15_0_0 <= 0
 inactive_no_flow_12_19_0_0: flow_12_19_0_0 - 1000 edge_12_19_0_0 <= 0
 inactive_no_flow_12_20_0_0: flow_12_20_0_0 - 1000 edge_12_20_0_0 <= 0
 inactive_no_flow_12_22_0_0: flow_12_22_0_0 - 1000 edge_12_22_0_0 <= 0
 inactive_no_flow_12_25_0_0: flow_12_25_0_0 - 1000 edge_12_25_0_0 <= 0
 inactive_no_flow_12_26_0_0: flow_12_26_0_0 - 1000 edge_12_26_0_0 <= 0
 inactive_no_flow_13_5_0_0: flow_13_5_0_0 - 1000 edge_13_5_0_0 <= 0
 inactive_no_flow_13_8_0_0: flow_13_8_0_0 - 1000 edge_13_8_0_0 <= 0
 inactive_no_flow_13_9_0_0: flow_13_9_0_0 - 1000 edge_13_9_0_0 <= 0
 inactive_no_flow_13_12_0_0: flow_13_12_0_0 - 1000 edge_13_12_0_0 <= 0
 inactive_no_flow_13_15_0_0: flow_13_15_0_0 - 1000 edge_13_15_0_0 <= 0
 inactive_no_flow_13_20_0_0: flow_13_20_0_0 - 1000 edge_13_20_0_0 <= 0
 inactive_no_flow_13_22_0_0: flow_13_22_0_0 - 1000 edge_13_22_0_0 <= 0
 inactive_no_flow_13_23_0_0: flow_13_23_0_0 - 1000 edge_13_23_0_0 <= 0
 inactive_no_flow_15_1_0_0: flow_15_1_0_0 - 1000 edge_15_1_0_0 <= 0
 inactive_no_flow_15_2_0_0: flow_15_2_0_0 - 1000 edge_15_2_0_0 <= 0
 inactive_no_flow_15_3_0_0: flow_15_3_0_0 - 1000 edge_15_3_0_0 <= 0
 inactive_no_flow_15_4_0_0: flow_15_4_0_0 - 1000 edge_15_4_0_0 <= 0
 inactive_no_flow_15_5_0_0: flow_15_5_0_0 - 1000 edge_15_5_0_0 <= 0
 inactive_no_flow_15_7_0_0: flow_15_7_0_0 - 1000 edge_15_7_0_0 <= 0
 inactive_no_flow_15_8_0_0: flow_15_8_0_0 - 1000 edge_15_8_0_0 <= 0
 inactive_no_flow_15_9_0_0: flow_15_9_0_0 - 1000 edge_15_9_0_0 <= 0
 inactive_no_flow_15_12_0_0: flow_15_12_0_0 - 1000 edge_15_12_0_0 <= 0
 inactive_no_flow_15_13_0_0: flow_15_13_0_0 - 1000 edge_15_13_0_0 <= 0
 inactive_no_flow_15_19_0_0: flow_15_19_0_0 - 1000 edge_15_19_0_0 <= 0
 inactive_no_flow_15_20_0_0: flow_15_20_0_0 - 1000 edge_15_20_0_0 <= 0
 inactive_no_flow_15_22_0_0: flow_15_22_0_0 - 1000 edge_15_22_0_0 <= 0
 inactive_no_flow_15_25_0_0: flow_15_25_0_0 - 1000 edge_15_25_0_0 <= 0
 inactive_no_flow_15_26_0_0: flow_15_26_0_0 - 1000 edge_15_26_0_0 <= 0
 inactive_no_flow_19_12_0_0: flow_19_12_0_0 - 1000 edge_19_12_0_0 <= 0
 inactive_no_flow_19_15_0_0: flow_19_15_0_0 - 1000 edge_19_15_0_0 <= 0
 inactive_no_flow_19_20_0_0: flow_19_20_0_0 - 1000 edge_19_20_0_0 <= 0
 inactive_no_flow_19_22_0_0: flow_19_22_0_0 - 1000 edge_19_22_0_0 <= 0
 inactive_no_flow_20_1_0_0: flow_20_1_0_0 - 1000 edge_20_1_0_0 <= 0
 inactive_no_flow_20_2_0_0: flow_20_2_0_0 - 1000 edge_20_2_0_0 <= 0
 inactive_no_flow_20_3_0_0: flow_20_3_0_0 - 1000 edge_20_3_0_0 <= 0
 inactive_no_flow_20_4_0_0: flow_20_4_0_0 - 1000 edge_20_4_0_0 <= 0
 inactive_no_flow_20_5_0_0: flow_20_5_0_0 - 1000 edge_20_5_0_0 <= 0
 inactive_no_flow_20_7_0_0: flow_20_7_0_0 - 1000 edge_20_7_0_0 <= 0
 inactive_no_flow_20_8_0_0: flow_20_8_0_0 - 1000 edge_20_8_0_0 <= 0
 inactive_no_flow_20_9_0_0: flow_20_9_0_0 - 1000 edge_20_9_0_0 <= 0
 inactive_no_flow_20_12_0_0: flow_20_12_0_0 - 1000 edge_20_12_0_0 <= 0
 inactive_no_flow_20_13_0_0: flow_20_13_0_0 - 1000 edge_20_13_0_0 <= 0
 inactive_no_flow_20_15_0_0: flow_20_15_0_0 - 1000 edge_20_15_0_0 <= 0
 inactive_no_flow_20_19_0_0: flow_20_19_0_0 - 1000 edge_20_19_0_0 <= 0
 inactive_no_flow_20_22_0_0: flow_20_22_0_0 - 1000 edge_20_22_0_0 <= 0
 inactive_no_flow_20_23_0_0: flow_20_23_0_0 - 1000 edge_20_23_0_0 <= 0
 inactive_no_flow_20_25_0_0: flow_20_25_0_0 - 1000 edge_20_25_0_0 <= 0
 inactive_no_flow_20_26_0_0: flow_20_26_0_0 - 1000 edge_20_26_0_0 <= 0
 inactive_no_flow_22_8_0_0: flow_22_8_0_0 - 1000 edge_22_8_0_0 <= 0
 inactive_no_flow_22_9_0_0: flow_22_9_0_0 - 1000 edge_22_9_0_0 <= 0
 inactive_no_flow_22_12_0_0: flow_22_12_0_0 - 1000 edge_22_12_0_0 <= 0
 inactive_no_flow_22_13_0_0: flow_22_13_0_0 - 1000 edge_22_13_0_0 <= 0
 inactive_no_flow_22_15_0_0: flow_22_15_0_0 - 1000 edge_22_15_0_0 <= 0
 inactive_no_flow_22_19_0_0: flow_22_19_0_0 - 1000 edge_22_19_0_0 <= 0
 inactive_no_flow_22_23_0_0: flow_22_23_0_0 - 1000 edge_22_23_0_0 <= 0
 inactive_no_flow_22_25_0_0: flow_22_25_0_0 - 1000 edge_22_25_0_0 <= 0
 inactive_no_flow_22_26_0_0: flow_22_26_0_0 - 1000 edge_22_26_0_0 <= 0
 inactive_no_flow_23_25_0_0: flow_23_25_0_0 - 1000 edge_23_25_0_0 <= 0
 inactive_no_flow_25_1_0_0: flow_25_1_0_0 - 1000 edge_25_1_0_0 <= 0
 inactive_no_flow_25_3_0_0: flow_25_3_0_0 - 1000 edge_25_3_0_0 <= 0
 inactive_no_flow_25_5_0_0: flow_25_5_0_0 - 1000 edge_25_5_0_0 <= 0
 inactive_no_flow_25_7_0_0: flow_25_7_0_0 - 1000 edge_25_7_0_0 <= 0
 inactive_no_flow_25_8_0_0: flow_25_8_0_0 - 1000 edge_25_8_0_0 <= 0
 inactive_no_flow_25_9_0_0: flow_25_9_0_0 - 1000 edge_25_9_0_0 <= 0
 inactive_no_flow_25_12_0_0: flow_25_12_0_0 - 1000 edge_25_12_0_0 <= 0
 inactive_no_flow_25_13_0_0: flow_25_13_0_0 - 1000 edge_25_13_0_0 <= 0
 inactive_no_flow_25_15_0_0: flow_25_15_0_0 - 1000 edge_25_15_0_0 <= 0
 inactive_no_flow_25_19_0_0: flow_25_19_0_0 - 1000 edge_25_19_0_0 <= 0
 inactive_no_flow_25_22_0_0: flow_25_22_0_0 - 1000 edge_25_22_0_0 <= 0
 inactive_no_flow_25_23_0_0: flow_25_23_0_0 - 1000 edge_25_23_0_0 <= 0
 inactive_no_flow_25_26_0_0: flow_25_26_0_0 - 1000 edge_25_26_0_0 <= 0
 inactive_no_flow_26_23_0_0: flow_26_23_0_0 - 1000 edge_26_23_0_0 <= 0
 inactive_no_flow_26_25_0_0: flow_26_25_0_0 - 1000 edge_26_25_0_0 <= 0
Bounds
Binaries
 edge_0_1_0_0 edge_0_2_0_0 edge_0_3_0_0 edge_0_4_0_0 edge_0_5_0_0
 edge_0_7_0_0 edge_0_9_0_0 edge_0_12_0_0 edge_0_15_0_0 edge_0_20_0_0
 edge_1_2_0_0 edge_1_3_0_0 edge_1_4_0_0 edge_1_5_0_0 edge_2_1_0_0
 edge_2_3_0_0 edge_2_4_0_0 edge_2_5_0_0 edge_2_7_0_0 edge_2_9_0_0
 edge_2_12_0_0 edge_2_15_0_0 edge_2_19_0_0 edge_2_20_0_0 edge_2_22_0_0
 edge_2_25_0_0 edge_2_26_0_0 edge_3_1_0_0 edge_3_2_0_0 edge_3_4_0_0
 edge_3_5_0_0 edge_3_7_0_0 edge_3_8_0_0 edge_3_9_0_0 edge_3_12_0_0
 edge_3_13_0_0 edge_3_15_0_0 edge_3_19_0_0 edge_3_20_0_0 edge_3_22_0_0
 edge_3_23_0_0 edge_3_25_0_0 edge_3_26_0_0 edge_4_1_0_0 edge_4_2_0_0
 edge_4_3_0_0 edge_4_12_0_0 edge_5_1_0_0 edge_5_2_0_0 edge_5_3_0_0
 edge_5_4_0_0 edge_5_7_0_0 edge_5_9_0_0 edge_5_12_0_0 edge_5_15_0_0
 edge_5_19_0_0 edge_5_20_0_0 edge_5_22_0_0 edge_5_25_0_0 edge_7_1_0_0
 edge_7_2_0_0 edge_7_3_0_0 edge_7_4_0_0 edge_7_5_0_0 edge_7_9_0_0
 edge_7_12_0_0 edge_7_15_0_0 edge_7_20_0_0 edge_7_22_0_0 edge_7_26_0_0
 edge_8_9_0_0 edge_8_13_0_0 edge_8_15_0_0 edge_8_20_0_0 edge_8_22_0_0
 edge_8_23_0_0 edge_9_1_0_0 edge_9_2_0_0 edge_9_3_0_0 edge_9_4_0_0
 edge_9_5_0_0 edge_9_7_0_0 edge_9_8_0_0 edge_9_12_0_0 edge_9_13_0_0
 edge_9_15_0_0 edge_9_19_0_0 edge_9_20_0_0 edge_9_22_0_0 edge_9_23_0_0
 edge_9_25_0_0 edge_9_26_0_0 edge_12_1_0_0 edge_12_2_0_0 edge_12_3_0_0
 edge_12_4_0_0 edge_12_5_0_0 edge_12_8_0_0 edge_12_9_0_0 edge_12_13_0_0
 edge_12_15_0_0 edge_12_19_0_0 edge_12_20_0_0 edge_12_22_0_0 edge_12_25_0_0
 edge_12_26_0_0 edge_13_5_0_0 edge_13_8_0_0 edge_13_9_0_0 edge_13_12_0_0
 edge_13_15_0_0 edge_13_20_0_0 edge_13_22_0_0 edge_13_23_0_0 edge_15_1_0_0
 edge_15_2_0_0 edge_15_3_0_0 edge_15_4_0_0 edge_15_5_0_0 edge_15_7_0_0
 edge_15_8_0_0 edge_15_9_0_0 edge_15_12_0_0 edge_15_13_0_0 edge_15_19_0_0
 edge_15_20_0_0 edge_15_22_0_0 edge_15_25_0_0 edge_15_26_0_0 edge_19_12_0_0
 edge_19_15_0_0 edge_19_20_0_0 edge_19_22_0_0 edge_20_1_0_0 edge_20_2_0_0
 edge_20_3_0_0 edge_20_4_0_0 edge_20_5_0_0 edge_20_7_0_0 edge_20_8_0_0
 edge_20_9_0_0 edge_20_12_0_0 edge_20_13_0_0 edge_20_15_0_0 edge_20_19_0_0
 edge_20_22_0_0 edge_20_23_0_0 edge_20_25_0_0 edge_20_26_0_0 edge_22_8_0_0
 edge_22_9_0_0 edge_22_12_0_0 edge_22_13_0_0 edge_22_15_0_0 edge_22_19_0_0
 edge_22_23_0_0 edge_22_25_0_0 edge_22_26_0_0 edge_23_25_0_0 edge_25_1_0_0
 edge_25_3_0_0 edge_25_5_0_0 edge_25_7_0_0 edge_25_8_0_0 edge_25_9_0_0
 edge_25_12_0_0 edge_25_13_0_0 edge_25_15_0_0 edge_25_19_0_0 edge_25_22_0_0
 edge_25_23_0_0 edge_25_26_0_0 edge_26_23_0_0 edge_26_25_0_0 pos_1_0
 pos_2_0 pos_3_0 pos_4_0 pos_5_0 pos_7_0 pos_8_0 pos_9_0 pos_12_0 pos_13_0
 pos_15_0 pos_19_0 pos_20_0 pos_22_0 pos_23_0 pos_25_0 pos_26_0
End
